NAME : portcgen-27-28
COMMENT : portcgen N=27, seed=28
TYPE : TSP
DIMENSION : 27
EDGE_WEIGHT_TYPE : EUC_2D
NODE_COORD_SECTION
1 135901 -99971
2 214410 -191400
3 -180324 325246
4 -105903 72291
5 -145164 -24631
6 -386555 -102760
7 215619 -217769
8 -15395 379106
9 48770 204187
10 -203671 317237
11 -32701 78583
12 257581 -317410
13 317424 -176341
14 -186857 -153029
15 -5669 -6490
16 186444 -197727
17 206327 -6105
18 -151138 -153764
19 -83454 -128458
20 382379 -27321
21 231784 26244
22 -129135 7918
23 -184968 -92263
24 -40460 51559
25 199407 -291370
26 692823 57825
27 -158078 -414514
